(declare-const a Real)
(declare-const b Real)
(declare-const c Real)
(assert (= (+ a b c) 3))
(assert (>= a 0))
(assert (>= b 0))
(assert (>= c 0))
(assert (not (<= (+ (* -1 (pow a 5)) (* -1 (pow b 5)) (* -1 (pow c 5)) (* (pow (+ (* a b (pow c 2)) (* 2 a b c)) 2) (pow (+ b c (* a (pow c 2))) -1))) 0)))
(check-sat)
(get-model)
(exit)